NAME : portcgen-16-6
COMMENT : portcgen N=16, seed=6
TYPE : TSP
DIMENSION : 16
EDGE_WEIGHT_TYPE : EUC_2D
NODE_COORD_SECTION
1 -92657 196477
2 78877 -169181
3 214898 12670
4 121458 265619
5 -154563 176634
6 79883 -123555
7 335511 561791
8 190468 -230591
9 -124540 -173245
10 64762 -348954
11 156483 -82818
12 -189990 131161
13 -231753 -349917
14 4027 36172
15 162214 357770
16 -123815 -32085
